Route 1: 6 68 87 104 64 100
Route 2: 31 93 49 69 63 163 10 94 26 74 23 70 84 138 8 7 158 135
Route 3: 119 156 57 59 62 128 48 127 79 139 166 27 36 124 129 86 15
Route 4: 121 54 33 17 3 30 29 73 11 52 40 12 142 71 134 25 32
Route 5: 152 39 157 126 116 98 149 117 154 132 5 150 22 161 159 103 109 28 133
Route 6: 110 9 130 148 50 92 162 91 95 167 107 34 75 42 21 118 44 67
Route 7: 164 146 108 65 105 13 58 78 14 2 123 112 89 115 137 38 85 147
Route 8: 66 35 165 82 46 99 151 136 41 101 51 20 143 83 113 60 96 76
Route 9: 81 106 37 111 102 140 24 155 61 114 72 144 56 97 18 160 16 53
Route 10: 125 88 145 19 55 77 131 4 80 47 141 120 90 45 122 43 153
Cost 23684.94
